<?xml version = "1.0" standalone="yes"?>
<!-- This file has been generated by DOcplex version 2.23.222  -->
<CPLEXSolution version="1.0">
 <header
   problemName="CVRP"
   objectiveValue="8977.95"
  />
 <variables>
  <variable name="x_0_1" index="0" value="1.00000"/>
  <variable name="x_0_2" index="1" value="1.00000"/>
  <variable name="x_0_5" index="4" value="1.00000"/>
  <variable name="x_0_6" index="5" value="1.00000"/>
  <variable name="x_0_7" index="6" value="1.00000"/>
  <variable name="x_0_8" index="7" value="1.00000"/>
  <variable name="x_0_9" index="8" value="1.00000"/>
  <variable name="x_0_10" index="9" value="1.00000"/>
  <variable name="x_0_11" index="10" value="1.00000"/>
  <variable name="x_1_0" index="13" value="1.00000"/>
  <variable name="x_2_0" index="26" value="1.00000"/>
  <variable name="x_3_13" index="51" value="1.00000"/>
  <variable name="x_4_0" index="52" value="1.00000"/>
  <variable name="x_5_0" index="65" value="1.00000"/>
  <variable name="x_6_0" index="78" value="1.00000"/>
  <variable name="x_7_0" index="91" value="1.00000"/>
  <variable name="x_8_0" index="104" value="1.00000"/>
  <variable name="x_9_4" index="121" value="1.00000"/>
  <variable name="x_10_3" index="133" value="1.00000"/>
  <variable name="x_11_12" index="154" value="1.00000"/>
  <variable name="x_12_0" index="156" value="1.00000"/>
  <variable name="x_13_0" index="169" value="1.00000"/>
  <variable name="u_1" index="182" value="29.00000"/>
  <variable name="u_2" index="183" value="20.00000"/>
  <variable name="u_3" index="184" value="24.00000"/>
  <variable name="u_4" index="185" value="31.00000"/>
  <variable name="u_5" index="186" value="27.00000"/>
  <variable name="u_6" index="187" value="15.00000"/>
  <variable name="u_7" index="188" value="25.00000"/>
  <variable name="u_8" index="189" value="31.00000"/>
  <variable name="u_9" index="190" value="12.00000"/>
  <variable name="u_10" index="191" value="20.00000"/>
  <variable name="u_11" index="192" value="6.00000"/>
  <variable name="u_12" index="193" value="31.00000"/>
  <variable name="u_13" index="194" value="31.00000"/>
 </variables>
</CPLEXSolution>
